data;

param num_top:=3;

#nodes and edges of the physical network
param n := 10;

set E := (1,2) (1,3) (1,7) (2,4) (2,7) (3,5) (4,8) (5,6) (5,7) (6,7) (6,9) (7,8) (7,9) (8,10) (9,10) ;

#nodes and edges of the virtual networks
set Nl[1] := 7 6 8 3 ;
set Nl[2] := 1 9 2 10 ;
set Nl[3] := 5 4 7 6 ;

set El[1] := (6,7) (6,8) (3,8) (3,7) (7,8) (3,6) ;
set El[2] := (1,9) (2,9) (2,10) (1,10) (9,10) (1,2) ;
set El[3] := (4,5) (4,7) (6,7) (5,6) (5,7) (4,6) ;
